c 171_4_checker.cnf
c
c field = 171
c formula set type = 4_checker
c
p cnf 5 62
332 
334 
336 
338 
-330 
333 
335 
337 
339 
-331 
332 
334 
336 
338 
-342 
333 
335 
337 
339 
-343 
334 
336 
338 
342 
-332 
335 
337 
339 
343 
-333 
334 
336 
338 
342 
-344 
335 
337 
339 
343 
-345 
336 
338 
342 
344 
-334 
337 
339 
343 
345 
-335 
336 
338 
342 
344 
-346 
337 
339 
343 
345 
-347 
338 
342 
344 
346 
-336 
339 
343 
345 
347 
-337 
338 
342 
344 
346 
-348 
339 
343 
345 
347 
-349 
342 
344 
346 
348 
-338 
343 
345 
347 
349 
-339 
342 
344 
346 
348 
-350 
343 
345 
347 
349 
-351 
220 
250 
280 
310 
-190 
221 
251 
281 
311 
-191 
220 
250 
280 
310 
-370 
221 
251 
281 
311 
-371 
250 
280 
310 
370 
-220 
251 
281 
311 
371 
-221 
250 
280 
310 
370 
-400 
251 
281 
311 
371 
-401 
280 
310 
370 
400 
-250 
281 
311 
371 
401 
-251 
280 
310 
370 
400 
-430 
281 
311 
371 
401 
-431 
310 
370 
400 
430 
-280 
311 
371 
401 
431 
-281 
212 
244 
276 
308 
-180 
213 
245 
277 
309 
-181 
212 
244 
276 
308 
-372 
213 
245 
277 
309 
-373 
244 
276 
308 
372 
-212 
245 
277 
309 
373 
-213 
244 
276 
308 
372 
-404 
245 
277 
309 
373 
-405 
276 
308 
372 
404 
-244 
277 
309 
373 
405 
-245 
276 
308 
372 
404 
-436 
277 
309 
373 
405 
-437 
308 
372 
404 
436 
-276 
309 
373 
405 
437 
-277 
228 
256 
284 
312 
-200 
229 
257 
285 
313 
-201 
228 
256 
284 
312 
-368 
229 
257 
285 
313 
-369 
256 
284 
312 
368 
-228 
257 
285 
313 
369 
-229 
256 
284 
312 
368 
-396 
257 
285 
313 
369 
-397 
284 
312 
368 
396 
-256 
285 
313 
369 
397 
-257 
284 
312 
368 
396 
-424 
285 
313 
369 
397 
-425 
312 
368 
396 
424 
-284 
313 
369 
397 
425 
-285 
